newgr/fuzix/crypt.dumpralloccfg_main.gr
p tw 63 66
1 2
2 13
3 9
4 5
5 6
6 7
7 8
8 9
9 10
10 11
11 12
12 14
13 24
14 15
15 16
16 17
17 18
18 19
19 20
20 21
21 22
22 23
23 25
24 35
24 4
25 26
25 59
26 27
27 28
28 29
29 30
30 31
31 32
32 33
33 34
34 36
35 46
36 37
37 38
38 39
39 40
40 41
41 42
42 43
43 44
44 45
45 47
46 57
47 48
48 49
49 50
50 51
51 52
51 18
52 53
53 54
54 55
55 56
55 18
56 58
57 61
58 18
59 60
61 62
62 63
63 3
